c Random generated cnf formula, satisfiable: true
p cnf 10 50
-6 1 4 0
2 9 -8 0
9 1 3 0
-4 3 -8 0
7 -6 4 0
9 -10 -7 0
9 -8 -4 0
9 -6 -5 0
-2 -6 -8 0
-10 7 3 0
7 3 5 0
8 1 4 0
-7 9 4 0
2 6 -3 0
9 3 -2 0
-5 -1 7 0
-3 -1 9 0
3 4 -1 0
-9 5 8 0
-2 -3 -4 0
6 -4 7 0
9 -1 -2 0
8 9 -6 0
-4 -6 7 0
2 8 5 0
1 3 -5 0
5 -6 8 0
2 -3 8 0
-1 10 3 0
9 -3 -1 0
9 -2 -3 0
2 3 8 0
-4 -1 -5 0
-7 3 -4 0
5 -2 -10 0
-1 -10 -5 0
9 -3 -2 0
4 1 -5 0
-9 8 -5 0
-4 -10 -6 0
-4 -2 -10 0
9 5 4 0
-3 7 -6 0
9 1 -3 0
-8 4 2 0
10 -2 -8 0
-5 -10 2 0
-10 5 -3 0
-10 -1 -4 0
7 -9 -1 0
